NAME: tsp40_1
COMMENT: 40-tsp problem (Padberg/Rinaldi)
TYPE: TSP
DIMENSION: 40
EDGE_WEIGHT_TYPE : EUC_2D
NODE_COORD_SECTION
1 11 40
2 25 6
3 13 0
4 35 21
5 3 40
6 27 7
7 4 37
8 19 17
9 27 29
10 3 10
11 7 8
12 22 6
13 27 14
14 37 7
15 23 17
16 6 22
17 16 25
18 11 1
19 1 31
20 18 9
21 2 13
22 19 10
23 27 36
24 5 13
25 32 21
26 4 25
27 1 6
28 30 21
29 19 25
30 3 0
31 8 25
32 5 18
33 4 3
34 6 17
35 6 15
36 10 33
37 31 5
38 29 22
39 6 1
40 5 29
